% Instance for pentominoes model generated using https://github.com/zayenz/minizinc-pentominoes-generator
% Instance generated for board size 20 with 5 tiles using 4711 as seed
% Generated board
%    44422222222222222222
%    44424422222222222222
%    44444422222222222222
%    44444444222222222222
%    44444444222222222222
%    44444444422222222222
%    44444444422222222222
%    44444444422222222222
%    44444444424444222255
%    14444444444444222255
%    11144444444444425555
%    11334444444444455555
%    11333444444444555555
%    11333344444444455555
%    11333333333333555555
%    33333333333333555555
%    33333333333335555555
%    33333333333355555555
%    33333333333335555555
%    33333333333335555555

size = 20;
tiles = 5;
expressions = [
    "( ([2 3 4 5 6]* 1{1} [2 3 4 5 6]{19} [2 3 4 5 6] 1{3} [2 3 4 5 6]{17} [2 3 4 5 6] 1{2} [2 3 4 5 6]{18} [2 3 4 5 6] 1{2} [2 3 4 5 6]{18} [2 3 4 5 6] 1{2} [2 3 4 5 6]{18} [2 3 4 5 6] 1{2} [2 3 4 5 6]*) | ([2 3 4 5 6]* 1{6} [2 3 4 5 6]{9} [2 3 4 5 6] [2 3 4 5 6]{5} 1{5} [2 3 4 5 6]{10} [2 3 4 5 6] [2 3 4 5 6]{9} 1{1} [2 3 4 5 6]*) | ([2 3 4 5 6]* 1{2} [2 3 4 5 6] [2 3 4 5 6]{18} 1{2} [2 3 4 5 6] [2 3 4 5 6]{18} 1{2} [2 3 4 5 6] [2 3 4 5 6]{18} 1{2} [2 3 4 5 6] [2 3 4 5 6]{17} 1{3} [2 3 4 5 6] [2 3 4 5 6]{19} 1{1} [2 3 4 5 6]*) | ([2 3 4 5 6]* 1{1} [2 3 4 5 6]{9} [2 3 4 5 6] [2 3 4 5 6]{10} 1{5} [2 3 4 5 6]{5} [2 3 4 5 6] [2 3 4 5 6]{9} 1{6} [2 3 4 5 6]*) | ([2 3 4 5 6]* 1{1} [2 3 4 5 6] [2 3 4 5 6]{17} 1{3} [2 3 4 5 6] [2 3 4 5 6]{18} 1{2} [2 3 4 5 6] [2 3 4 5 6]{18} 1{2} [2 3 4 5 6] [2 3 4 5 6]{18} 1{2} [2 3 4 5 6] [2 3 4 5 6]{18} 1{2} [2 3 4 5 6]*) | ([2 3 4 5 6]* 1{6} [2 3 4 5 6]{5} [2 3 4 5 6] [2 3 4 5 6]{10} 1{5} [2 3 4 5 6]{5} [2 3 4 5 6] [2 3 4 5 6]{10} 1{1} [2 3 4 5 6]*) | ([2 3 4 5 6]* 1{2} [2 3 4 5 6]{18} [2 3 4 5 6] 1{2} [2 3 4 5 6]{18} [2 3 4 5 6] 1{2} [2 3 4 5 6]{18} [2 3 4 5 6] 1{2} [2 3 4 5 6]{18} [2 3 4 5 6] 1{3} [2 3 4 5 6]{17} [2 3 4 5 6] 1{1} [2 3 4 5 6]*) | ([2 3 4 5 6]* 1{1} [2 3 4 5 6]{10} [2 3 4 5 6] [2 3 4 5 6]{5} 1{5} [2 3 4 5 6]{10} [2 3 4 5 6] [2 3 4 5 6]{5} 1{6} [2 3 4 5 6]*) )",
    "( ([1 3 4 5 6]* 2{17} [1 3 4 5 6] [1 3 4 5 6]{3} 2{1} [1 3 4 5 6]{2} 2{14} [1 3 4 5 6] [1 3 4 5 6]{6} 2{14} [1 3 4 5 6] [1 3 4 5 6]{8} 2{12} [1 3 4 5 6] [1 3 4 5 6]{8} 2{12} [1 3 4 5 6] [1 3 4 5 6]{9} 2{11} [1 3 4 5 6] [1 3 4 5 6]{9} 2{11} [1 3 4 5 6] [1 3 4 5 6]{9} 2{11} [1 3 4 5 6] [1 3 4 5 6]{9} 2{1} [1 3 4 5 6]{4} 2{4} [1 3 4 5 6]{2} [1 3 4 5 6] [1 3 4 5 6]{14} 2{4} [1 3 4 5 6]{2} [1 3 4 5 6] [1 3 4 5 6]{15} 2{1} [1 3 4 5 6]*) | ([1 3 4 5 6]* 2{2} [1 3 4 5 6] [1 3 4 5 6]{19} 2{1} [1 3 4 5 6] [1 3 4 5 6]{19} 2{1} [1 3 4 5 6] [1 3 4 5 6]{17} 2{3} [1 3 4 5 6] [1 3 4 5 6]{17} 2{3} [1 3 4 5 6] [1 3 4 5 6]{15} 2{5} [1 3 4 5 6] [1 3 4 5 6]{11} 2{9} [1 3 4 5 6] [1 3 4 5 6]{12} 2{8} [1 3 4 5 6] [1 3 4 5 6]{12} 2{8} [1 3 4 5 6] [1 3 4 5 6]{12} 2{8} [1 3 4 5 6] [1 3 4 5 6]{12} 2{8} [1 3 4 5 6] [1 3 4 5 6]{10} 2{10} [1 3 4 5 6] [1 3 4 5 6]{9} 2{11} [1 3 4 5 6] [1 3 4 5 6]{10} 2{10} [1 3 4 5 6] [1 3 4 5 6]{10} 2{10} [1 3 4 5 6] [1 3 4 5 6]{12} 2{8} [1 3 4 5 6] [1 3 4 5 6]{12} 2{8} [1 3 4 5 6]*) | ([1 3 4 5 6]* 2{1} [1 3 4 5 6]{15} [1 3 4 5 6] [1 3 4 5 6]{2} 2{4} [1 3 4 5 6]{14} [1 3 4 5 6] [1 3 4 5 6]{2} 2{4} [1 3 4 5 6]{4} 2{1} [1 3 4 5 6]{9} [1 3 4 5 6] 2{11} [1 3 4 5 6]{9} [1 3 4 5 6] 2{11} [1 3 4 5 6]{9} [1 3 4 5 6] 2{11} [1 3 4 5 6]{9} [1 3 4 5 6] 2{12} [1 3 4 5 6]{8} [1 3 4 5 6] 2{12} [1 3 4 5 6]{8} [1 3 4 5 6] 2{14} [1 3 4 5 6]{6} [1 3 4 5 6] 2{14} [1 3 4 5 6]{2} 2{1} [1 3 4 5 6]{3} [1 3 4 5 6] 2{17} [1 3 4 5 6]*) | ([1 3 4 5 6]* 2{8} [1 3 4 5 6]{12} [1 3 4 5 6] 2{8} [1 3 4 5 6]{12} [1 3 4 5 6] 2{10} [1 3 4 5 6]{10} [1 3 4 5 6] 2{10} [1 3 4 5 6]{10} [1 3 4 5 6] 2{11} [1 3 4 5 6]{9} [1 3 4 5 6] 2{10} [1 3 4 5 6]{10} [1 3 4 5 6] 2{8} [1 3 4 5 6]{12} [1 3 4 5 6] 2{8} [1 3 4 5 6]{12} [1 3 4 5 6] 2{8} [1 3 4 5 6]{12} [1 3 4 5 6] 2{8} [1 3 4 5 6]{12} [1 3 4 5 6] 2{9} [1 3 4 5 6]{11} [1 3 4 5 6] 2{5} [1 3 4 5 6]{15} [1 3 4 5 6] 2{3} [1 3 4 5 6]{17} [1 3 4 5 6] 2{3} [1 3 4 5 6]{17} [1 3 4 5 6] 2{1} [1 3 4 5 6]{19} [1 3 4 5 6] 2{1} [1 3 4 5 6]{19} [1 3 4 5 6] 2{2} [1 3 4 5 6]*) | ([1 3 4 5 6]* 2{17} [1 3 4 5 6]{3} [1 3 4 5 6] 2{14} [1 3 4 5 6]{2} 2{1} [1 3 4 5 6]{3} [1 3 4 5 6] 2{14} [1 3 4 5 6]{6} [1 3 4 5 6] 2{12} [1 3 4 5 6]{8} [1 3 4 5 6] 2{12} [1 3 4 5 6]{8} [1 3 4 5 6] 2{11} [1 3 4 5 6]{9} [1 3 4 5 6] 2{11} [1 3 4 5 6]{9} [1 3 4 5 6] 2{11} [1 3 4 5 6]{9} [1 3 4 5 6] [1 3 4 5 6]{2} 2{4} [1 3 4 5 6]{4} 2{1} [1 3 4 5 6]{9} [1 3 4 5 6] [1 3 4 5 6]{2} 2{4} [1 3 4 5 6]{14} [1 3 4 5 6] [1 3 4 5 6]{4} 2{1} [1 3 4 5 6]*) | ([1 3 4 5 6]* 2{2} [1 3 4 5 6]{18} [1 3 4 5 6] 2{1} [1 3 4 5 6]{19} [1 3 4 5 6] 2{1} [1 3 4 5 6]{19} [1 3 4 5 6] 2{3} [1 3 4 5 6]{17} [1 3 4 5 6] 2{3} [1 3 4 5 6]{17} [1 3 4 5 6] 2{5} [1 3 4 5 6]{15} [1 3 4 5 6] 2{9} [1 3 4 5 6]{11} [1 3 4 5 6] 2{8} [1 3 4 5 6]{12} [1 3 4 5 6] 2{8} [1 3 4 5 6]{12} [1 3 4 5 6] 2{8} [1 3 4 5 6]{12} [1 3 4 5 6] 2{8} [1 3 4 5 6]{12} [1 3 4 5 6] 2{10} [1 3 4 5 6]{10} [1 3 4 5 6] 2{11} [1 3 4 5 6]{9} [1 3 4 5 6] 2{10} [1 3 4 5 6]{10} [1 3 4 5 6] 2{10} [1 3 4 5 6]{10} [1 3 4 5 6] 2{8} [1 3 4 5 6]{12} [1 3 4 5 6] 2{8} [1 3 4 5 6]*) | ([1 3 4 5 6]* 2{1} [1 3 4 5 6]{4} [1 3 4 5 6] [1 3 4 5 6]{14} 2{4} [1 3 4 5 6]{2} [1 3 4 5 6] [1 3 4 5 6]{9} 2{1} [1 3 4 5 6]{4} 2{4} [1 3 4 5 6]{2} [1 3 4 5 6] [1 3 4 5 6]{9} 2{11} [1 3 4 5 6] [1 3 4 5 6]{9} 2{11} [1 3 4 5 6] [1 3 4 5 6]{9} 2{11} [1 3 4 5 6] [1 3 4 5 6]{8} 2{12} [1 3 4 5 6] [1 3 4 5 6]{8} 2{12} [1 3 4 5 6] [1 3 4 5 6]{6} 2{14} [1 3 4 5 6] [1 3 4 5 6]{3} 2{1} [1 3 4 5 6]{2} 2{14} [1 3 4 5 6] [1 3 4 5 6]{3} 2{17} [1 3 4 5 6]*) | ([1 3 4 5 6]* 2{8} [1 3 4 5 6] [1 3 4 5 6]{12} 2{8} [1 3 4 5 6] [1 3 4 5 6]{10} 2{10} [1 3 4 5 6] [1 3 4 5 6]{10} 2{10} [1 3 4 5 6] [1 3 4 5 6]{9} 2{11} [1 3 4 5 6] [1 3 4 5 6]{10} 2{10} [1 3 4 5 6] [1 3 4 5 6]{12} 2{8} [1 3 4 5 6] [1 3 4 5 6]{12} 2{8} [1 3 4 5 6] [1 3 4 5 6]{12} 2{8} [1 3 4 5 6] [1 3 4 5 6]{12} 2{8} [1 3 4 5 6] [1 3 4 5 6]{11} 2{9} [1 3 4 5 6] [1 3 4 5 6]{15} 2{5} [1 3 4 5 6] [1 3 4 5 6]{17} 2{3} [1 3 4 5 6] [1 3 4 5 6]{17} 2{3} [1 3 4 5 6] [1 3 4 5 6]{19} 2{1} [1 3 4 5 6] [1 3 4 5 6]{19} 2{1} [1 3 4 5 6] [1 3 4 5 6]{18} 2{2} [1 3 4 5 6]*) )",
    "( ([1 2 4 5 6]* 3{2} [1 2 4 5 6]{16} [1 2 4 5 6] [1 2 4 5 6]{2} 3{3} [1 2 4 5 6]{15} [1 2 4 5 6] [1 2 4 5 6]{2} 3{4} [1 2 4 5 6]{14} [1 2 4 5 6] [1 2 4 5 6]{2} 3{12} [1 2 4 5 6]{6} [1 2 4 5 6] 3{14} [1 2 4 5 6]{6} [1 2 4 5 6] 3{13} [1 2 4 5 6]{7} [1 2 4 5 6] 3{12} [1 2 4 5 6]{8} [1 2 4 5 6] 3{13} [1 2 4 5 6]{7} [1 2 4 5 6] 3{13} [1 2 4 5 6]*) | ([1 2 4 5 6]* 3{5} [1 2 4 5 6]{15} [1 2 4 5 6] 3{5} [1 2 4 5 6]{15} [1 2 4 5 6] 3{9} [1 2 4 5 6]{11} [1 2 4 5 6] 3{9} [1 2 4 5 6]{11} [1 2 4 5 6] 3{8} [1 2 4 5 6]{12} [1 2 4 5 6] 3{7} [1 2 4 5 6]{13} [1 2 4 5 6] 3{6} [1 2 4 5 6]{14} [1 2 4 5 6] 3{6} [1 2 4 5 6]{14} [1 2 4 5 6] 3{6} [1 2 4 5 6]{14} [1 2 4 5 6] 3{6} [1 2 4 5 6]{14} [1 2 4 5 6] 3{6} [1 2 4 5 6]{14} [1 2 4 5 6] 3{6} [1 2 4 5 6]{14} [1 2 4 5 6] 3{2} [1 2 4 5 6]{1} 3{3} [1 2 4 5 6]{14} [1 2 4 5 6] [1 2 4 5 6]{4} 3{2} [1 2 4 5 6]*) | ([1 2 4 5 6]* 3{13} [1 2 4 5 6] [1 2 4 5 6]{7} 3{13} [1 2 4 5 6] [1 2 4 5 6]{8} 3{12} [1 2 4 5 6] [1 2 4 5 6]{7} 3{13} [1 2 4 5 6] [1 2 4 5 6]{6} 3{14} [1 2 4 5 6] [1 2 4 5 6]{6} 3{12} [1 2 4 5 6]{2} [1 2 4 5 6] [1 2 4 5 6]{14} 3{4} [1 2 4 5 6]{2} [1 2 4 5 6] [1 2 4 5 6]{15} 3{3} [1 2 4 5 6]{2} [1 2 4 5 6] [1 2 4 5 6]{16} 3{2} [1 2 4 5 6]*) | ([1 2 4 5 6]* 3{2} [1 2 4 5 6]{4} [1 2 4 5 6] [1 2 4 5 6]{14} 3{3} [1 2 4 5 6]{1} 3{2} [1 2 4 5 6] [1 2 4 5 6]{14} 3{6} [1 2 4 5 6] [1 2 4 5 6]{14} 3{6} [1 2 4 5 6] [1 2 4 5 6]{14} 3{6} [1 2 4 5 6] [1 2 4 5 6]{14} 3{6} [1 2 4 5 6] [1 2 4 5 6]{14} 3{6} [1 2 4 5 6] [1 2 4 5 6]{14} 3{6} [1 2 4 5 6] [1 2 4 5 6]{13} 3{7} [1 2 4 5 6] [1 2 4 5 6]{12} 3{8} [1 2 4 5 6] [1 2 4 5 6]{11} 3{9} [1 2 4 5 6] [1 2 4 5 6]{11} 3{9} [1 2 4 5 6] [1 2 4 5 6]{15} 3{5} [1 2 4 5 6] [1 2 4 5 6]{15} 3{5} [1 2 4 5 6]*) | ([1 2 4 5 6]* 3{2} [1 2 4 5 6]{2} [1 2 4 5 6] [1 2 4 5 6]{15} 3{3} [1 2 4 5 6]{2} [1 2 4 5 6] [1 2 4 5 6]{14} 3{4} [1 2 4 5 6]{2} [1 2 4 5 6] [1 2 4 5 6]{6} 3{12} [1 2 4 5 6]{2} [1 2 4 5 6] [1 2 4 5 6]{6} 3{14} [1 2 4 5 6] [1 2 4 5 6]{7} 3{13} [1 2 4 5 6] [1 2 4 5 6]{8} 3{12} [1 2 4 5 6] [1 2 4 5 6]{7} 3{13} [1 2 4 5 6] [1 2 4 5 6]{7} 3{13} [1 2 4 5 6]*) | ([1 2 4 5 6]* 3{5} [1 2 4 5 6] [1 2 4 5 6]{15} 3{5} [1 2 4 5 6] [1 2 4 5 6]{11} 3{9} [1 2 4 5 6] [1 2 4 5 6]{11} 3{9} [1 2 4 5 6] [1 2 4 5 6]{12} 3{8} [1 2 4 5 6] [1 2 4 5 6]{13} 3{7} [1 2 4 5 6] [1 2 4 5 6]{14} 3{6} [1 2 4 5 6] [1 2 4 5 6]{14} 3{6} [1 2 4 5 6] [1 2 4 5 6]{14} 3{6} [1 2 4 5 6] [1 2 4 5 6]{14} 3{6} [1 2 4 5 6] [1 2 4 5 6]{14} 3{6} [1 2 4 5 6] [1 2 4 5 6]{14} 3{6} [1 2 4 5 6] [1 2 4 5 6]{14} 3{3} [1 2 4 5 6]{1} 3{2} [1 2 4 5 6] [1 2 4 5 6]{14} 3{2} [1 2 4 5 6]*) | ([1 2 4 5 6]* 3{13} [1 2 4 5 6]{7} [1 2 4 5 6] 3{13} [1 2 4 5 6]{7} [1 2 4 5 6] 3{12} [1 2 4 5 6]{8} [1 2 4 5 6] 3{13} [1 2 4 5 6]{7} [1 2 4 5 6] 3{14} [1 2 4 5 6]{6} [1 2 4 5 6] [1 2 4 5 6]{2} 3{12} [1 2 4 5 6]{6} [1 2 4 5 6] [1 2 4 5 6]{2} 3{4} [1 2 4 5 6]{14} [1 2 4 5 6] [1 2 4 5 6]{2} 3{3} [1 2 4 5 6]{15} [1 2 4 5 6] [1 2 4 5 6]{2} 3{2} [1 2 4 5 6]*) | ([1 2 4 5 6]* 3{2} [1 2 4 5 6]{14} [1 2 4 5 6] 3{2} [1 2 4 5 6]{1} 3{3} [1 2 4 5 6]{14} [1 2 4 5 6] 3{6} [1 2 4 5 6]{14} [1 2 4 5 6] 3{6} [1 2 4 5 6]{14} [1 2 4 5 6] 3{6} [1 2 4 5 6]{14} [1 2 4 5 6] 3{6} [1 2 4 5 6]{14} [1 2 4 5 6] 3{6} [1 2 4 5 6]{14} [1 2 4 5 6] 3{6} [1 2 4 5 6]{14} [1 2 4 5 6] 3{7} [1 2 4 5 6]{13} [1 2 4 5 6] 3{8} [1 2 4 5 6]{12} [1 2 4 5 6] 3{9} [1 2 4 5 6]{11} [1 2 4 5 6] 3{9} [1 2 4 5 6]{11} [1 2 4 5 6] 3{5} [1 2 4 5 6]{15} [1 2 4 5 6] 3{5} [1 2 4 5 6]*) )",
    "( ([1 2 3 5 6]* 4{3} [1 2 3 5 6]{17} [1 2 3 5 6] 4{3} [1 2 3 5 6]{1} 4{2} [1 2 3 5 6]{14} [1 2 3 5 6] 4{6} [1 2 3 5 6]{14} [1 2 3 5 6] 4{8} [1 2 3 5 6]{12} [1 2 3 5 6] 4{8} [1 2 3 5 6]{12} [1 2 3 5 6] 4{9} [1 2 3 5 6]{11} [1 2 3 5 6] 4{9} [1 2 3 5 6]{11} [1 2 3 5 6] 4{9} [1 2 3 5 6]{11} [1 2 3 5 6] 4{9} [1 2 3 5 6]{1} 4{4} [1 2 3 5 6]{6} [1 2 3 5 6] [1 2 3 5 6]{1} 4{13} [1 2 3 5 6]{6} [1 2 3 5 6] [1 2 3 5 6]{3} 4{12} [1 2 3 5 6]{5} [1 2 3 5 6] [1 2 3 5 6]{4} 4{11} [1 2 3 5 6]{5} [1 2 3 5 6] [1 2 3 5 6]{5} 4{9} [1 2 3 5 6]{6} [1 2 3 5 6] [1 2 3 5 6]{6} 4{9} [1 2 3 5 6]*) | ([1 2 3 5 6]* 4{9} [1 2 3 5 6] [1 2 3 5 6]{10} 4{10} [1 2 3 5 6] [1 2 3 5 6]{10} 4{10} [1 2 3 5 6] [1 2 3 5 6]{9} 4{9} [1 2 3 5 6]{2} [1 2 3 5 6] [1 2 3 5 6]{8} 4{11} [1 2 3 5 6]{1} [1 2 3 5 6] [1 2 3 5 6]{7} 4{12} [1 2 3 5 6]{1} [1 2 3 5 6] [1 2 3 5 6]{6} 4{11} [1 2 3 5 6]{3} [1 2 3 5 6] [1 2 3 5 6]{6} 4{11} [1 2 3 5 6]{3} [1 2 3 5 6] [1 2 3 5 6]{6} 4{9} [1 2 3 5 6]{5} [1 2 3 5 6] [1 2 3 5 6]{6} 4{5} [1 2 3 5 6]{9} [1 2 3 5 6] [1 2 3 5 6]{6} 4{6} [1 2 3 5 6]{8} [1 2 3 5 6] [1 2 3 5 6]{6} 4{6} [1 2 3 5 6]{8} [1 2 3 5 6] [1 2 3 5 6]{6} 4{6} [1 2 3 5 6]{8} [1 2 3 5 6] [1 2 3 5 6]{6} 4{6} [1 2 3 5 6]{8} [1 2 3 5 6] [1 2 3 5 6]{6} 4{1} [1 2 3 5 6]{1} 4{2} [1 2 3 5 6]*) | ([1 2 3 5 6]* 4{9} [1 2 3 5 6]{6} [1 2 3 5 6] [1 2 3 5 6]{6} 4{9} [1 2 3 5 6]{5} [1 2 3 5 6] [1 2 3 5 6]{5} 4{11} [1 2 3 5 6]{4} [1 2 3 5 6] [1 2 3 5 6]{5} 4{12} [1 2 3 5 6]{3} [1 2 3 5 6] [1 2 3 5 6]{6} 4{13} [1 2 3 5 6]{1} [1 2 3 5 6] [1 2 3 5 6]{6} 4{4} [1 2 3 5 6]{1} 4{9} [1 2 3 5 6] [1 2 3 5 6]{11} 4{9} [1 2 3 5 6] [1 2 3 5 6]{11} 4{9} [1 2 3 5 6] [1 2 3 5 6]{11} 4{9} [1 2 3 5 6] [1 2 3 5 6]{12} 4{8} [1 2 3 5 6] [1 2 3 5 6]{12} 4{8} [1 2 3 5 6] [1 2 3 5 6]{14} 4{6} [1 2 3 5 6] [1 2 3 5 6]{14} 4{2} [1 2 3 5 6]{1} 4{3} [1 2 3 5 6] [1 2 3 5 6]{17} 4{3} [1 2 3 5 6]*) | ([1 2 3 5 6]* 4{2} [1 2 3 5 6]{1} 4{1} [1 2 3 5 6]{6} [1 2 3 5 6] [1 2 3 5 6]{8} 4{6} [1 2 3 5 6]{6} [1 2 3 5 6] [1 2 3 5 6]{8} 4{6} [1 2 3 5 6]{6} [1 2 3 5 6] [1 2 3 5 6]{8} 4{6} [1 2 3 5 6]{6} [1 2 3 5 6] [1 2 3 5 6]{8} 4{6} [1 2 3 5 6]{6} [1 2 3 5 6] [1 2 3 5 6]{9} 4{5} [1 2 3 5 6]{6} [1 2 3 5 6] [1 2 3 5 6]{5} 4{9} [1 2 3 5 6]{6} [1 2 3 5 6] [1 2 3 5 6]{3} 4{11} [1 2 3 5 6]{6} [1 2 3 5 6] [1 2 3 5 6]{3} 4{11} [1 2 3 5 6]{6} [1 2 3 5 6] [1 2 3 5 6]{1} 4{12} [1 2 3 5 6]{7} [1 2 3 5 6] [1 2 3 5 6]{1} 4{11} [1 2 3 5 6]{8} [1 2 3 5 6] [1 2 3 5 6]{2} 4{9} [1 2 3 5 6]{9} [1 2 3 5 6] 4{10} [1 2 3 5 6]{10} [1 2 3 5 6] 4{10} [1 2 3 5 6]{10} [1 2 3 5 6] 4{9} [1 2 3 5 6]*) | ([1 2 3 5 6]* 4{3} [1 2 3 5 6] [1 2 3 5 6]{14} 4{2} [1 2 3 5 6]{1} 4{3} [1 2 3 5 6] [1 2 3 5 6]{14} 4{6} [1 2 3 5 6] [1 2 3 5 6]{12} 4{8} [1 2 3 5 6] [1 2 3 5 6]{12} 4{8} [1 2 3 5 6] [1 2 3 5 6]{11} 4{9} [1 2 3 5 6] [1 2 3 5 6]{11} 4{9} [1 2 3 5 6] [1 2 3 5 6]{11} 4{9} [1 2 3 5 6] [1 2 3 5 6]{6} 4{4} [1 2 3 5 6]{1} 4{9} [1 2 3 5 6] [1 2 3 5 6]{6} 4{13} [1 2 3 5 6]{1} [1 2 3 5 6] [1 2 3 5 6]{5} 4{12} [1 2 3 5 6]{3} [1 2 3 5 6] [1 2 3 5 6]{5} 4{11} [1 2 3 5 6]{4} [1 2 3 5 6] [1 2 3 5 6]{6} 4{9} [1 2 3 5 6]{5} [1 2 3 5 6] [1 2 3 5 6]{5} 4{9} [1 2 3 5 6]*) | ([1 2 3 5 6]* 4{9} [1 2 3 5 6]{11} [1 2 3 5 6] 4{10} [1 2 3 5 6]{10} [1 2 3 5 6] 4{10} [1 2 3 5 6]{10} [1 2 3 5 6] [1 2 3 5 6]{2} 4{9} [1 2 3 5 6]{9} [1 2 3 5 6] [1 2 3 5 6]{1} 4{11} [1 2 3 5 6]{8} [1 2 3 5 6] [1 2 3 5 6]{1} 4{12} [1 2 3 5 6]{7} [1 2 3 5 6] [1 2 3 5 6]{3} 4{11} [1 2 3 5 6]{6} [1 2 3 5 6] [1 2 3 5 6]{3} 4{11} [1 2 3 5 6]{6} [1 2 3 5 6] [1 2 3 5 6]{5} 4{9} [1 2 3 5 6]{6} [1 2 3 5 6] [1 2 3 5 6]{9} 4{5} [1 2 3 5 6]{6} [1 2 3 5 6] [1 2 3 5 6]{8} 4{6} [1 2 3 5 6]{6} [1 2 3 5 6] [1 2 3 5 6]{8} 4{6} [1 2 3 5 6]{6} [1 2 3 5 6] [1 2 3 5 6]{8} 4{6} [1 2 3 5 6]{6} [1 2 3 5 6] [1 2 3 5 6]{8} 4{6} [1 2 3 5 6]{6} [1 2 3 5 6] [1 2 3 5 6]{10} 4{2} [1 2 3 5 6]{1} 4{1} [1 2 3 5 6]*) | ([1 2 3 5 6]* 4{9} [1 2 3 5 6]{5} [1 2 3 5 6] [1 2 3 5 6]{5} 4{9} [1 2 3 5 6]{6} [1 2 3 5 6] [1 2 3 5 6]{4} 4{11} [1 2 3 5 6]{5} [1 2 3 5 6] [1 2 3 5 6]{3} 4{12} [1 2 3 5 6]{5} [1 2 3 5 6] [1 2 3 5 6]{1} 4{13} [1 2 3 5 6]{6} [1 2 3 5 6] 4{9} [1 2 3 5 6]{1} 4{4} [1 2 3 5 6]{6} [1 2 3 5 6] 4{9} [1 2 3 5 6]{11} [1 2 3 5 6] 4{9} [1 2 3 5 6]{11} [1 2 3 5 6] 4{9} [1 2 3 5 6]{11} [1 2 3 5 6] 4{8} [1 2 3 5 6]{12} [1 2 3 5 6] 4{8} [1 2 3 5 6]{12} [1 2 3 5 6] 4{6} [1 2 3 5 6]{14} [1 2 3 5 6] 4{3} [1 2 3 5 6]{1} 4{2} [1 2 3 5 6]{14} [1 2 3 5 6] 4{3} [1 2 3 5 6]*) | ([1 2 3 5 6]* 4{1} [1 2 3 5 6]{1} 4{2} [1 2 3 5 6]{10} [1 2 3 5 6] [1 2 3 5 6]{6} 4{6} [1 2 3 5 6]{8} [1 2 3 5 6] [1 2 3 5 6]{6} 4{6} [1 2 3 5 6]{8} [1 2 3 5 6] [1 2 3 5 6]{6} 4{6} [1 2 3 5 6]{8} [1 2 3 5 6] [1 2 3 5 6]{6} 4{6} [1 2 3 5 6]{8} [1 2 3 5 6] [1 2 3 5 6]{6} 4{5} [1 2 3 5 6]{9} [1 2 3 5 6] [1 2 3 5 6]{6} 4{9} [1 2 3 5 6]{5} [1 2 3 5 6] [1 2 3 5 6]{6} 4{11} [1 2 3 5 6]{3} [1 2 3 5 6] [1 2 3 5 6]{6} 4{11} [1 2 3 5 6]{3} [1 2 3 5 6] [1 2 3 5 6]{7} 4{12} [1 2 3 5 6]{1} [1 2 3 5 6] [1 2 3 5 6]{8} 4{11} [1 2 3 5 6]{1} [1 2 3 5 6] [1 2 3 5 6]{9} 4{9} [1 2 3 5 6]{2} [1 2 3 5 6] [1 2 3 5 6]{10} 4{10} [1 2 3 5 6] [1 2 3 5 6]{10} 4{10} [1 2 3 5 6] [1 2 3 5 6]{11} 4{9} [1 2 3 5 6]*) )",
    "( ([1 2 3 4 6]* 5{2} [1 2 3 4 6] [1 2 3 4 6]{18} 5{2} [1 2 3 4 6] [1 2 3 4 6]{16} 5{4} [1 2 3 4 6] [1 2 3 4 6]{15} 5{5} [1 2 3 4 6] [1 2 3 4 6]{14} 5{6} [1 2 3 4 6] [1 2 3 4 6]{15} 5{5} [1 2 3 4 6] [1 2 3 4 6]{14} 5{6} [1 2 3 4 6] [1 2 3 4 6]{14} 5{6} [1 2 3 4 6] [1 2 3 4 6]{13} 5{7} [1 2 3 4 6] [1 2 3 4 6]{12} 5{8} [1 2 3 4 6] [1 2 3 4 6]{13} 5{7} [1 2 3 4 6] [1 2 3 4 6]{13} 5{7} [1 2 3 4 6]*) | ([1 2 3 4 6]* 5{1} [1 2 3 4 6]{17} [1 2 3 4 6] 5{4} [1 2 3 4 6]{16} [1 2 3 4 6] 5{6} [1 2 3 4 6]{1} 5{1} [1 2 3 4 6]{12} [1 2 3 4 6] 5{9} [1 2 3 4 6]{11} [1 2 3 4 6] 5{10} [1 2 3 4 6]{10} [1 2 3 4 6] 5{10} [1 2 3 4 6]{10} [1 2 3 4 6] 5{12} [1 2 3 4 6]{8} [1 2 3 4 6] 5{12} [1 2 3 4 6]*) | ([1 2 3 4 6]* 5{7} [1 2 3 4 6]{13} [1 2 3 4 6] 5{7} [1 2 3 4 6]{13} [1 2 3 4 6] 5{8} [1 2 3 4 6]{12} [1 2 3 4 6] 5{7} [1 2 3 4 6]{13} [1 2 3 4 6] 5{6} [1 2 3 4 6]{14} [1 2 3 4 6] 5{6} [1 2 3 4 6]{14} [1 2 3 4 6] 5{5} [1 2 3 4 6]{15} [1 2 3 4 6] 5{6} [1 2 3 4 6]{14} [1 2 3 4 6] 5{5} [1 2 3 4 6]{15} [1 2 3 4 6] 5{4} [1 2 3 4 6]{16} [1 2 3 4 6] 5{2} [1 2 3 4 6]{18} [1 2 3 4 6] 5{2} [1 2 3 4 6]*) | ([1 2 3 4 6]* 5{12} [1 2 3 4 6] [1 2 3 4 6]{8} 5{12} [1 2 3 4 6] [1 2 3 4 6]{10} 5{10} [1 2 3 4 6] [1 2 3 4 6]{10} 5{10} [1 2 3 4 6] [1 2 3 4 6]{11} 5{9} [1 2 3 4 6] [1 2 3 4 6]{12} 5{1} [1 2 3 4 6]{1} 5{6} [1 2 3 4 6] [1 2 3 4 6]{16} 5{4} [1 2 3 4 6] [1 2 3 4 6]{17} 5{1} [1 2 3 4 6]*) | ([1 2 3 4 6]* 5{2} [1 2 3 4 6]{18} [1 2 3 4 6] 5{2} [1 2 3 4 6]{18} [1 2 3 4 6] 5{4} [1 2 3 4 6]{16} [1 2 3 4 6] 5{5} [1 2 3 4 6]{15} [1 2 3 4 6] 5{6} [1 2 3 4 6]{14} [1 2 3 4 6] 5{5} [1 2 3 4 6]{15} [1 2 3 4 6] 5{6} [1 2 3 4 6]{14} [1 2 3 4 6] 5{6} [1 2 3 4 6]{14} [1 2 3 4 6] 5{7} [1 2 3 4 6]{13} [1 2 3 4 6] 5{8} [1 2 3 4 6]{12} [1 2 3 4 6] 5{7} [1 2 3 4 6]{13} [1 2 3 4 6] 5{7} [1 2 3 4 6]*) | ([1 2 3 4 6]* 5{1} [1 2 3 4 6]{2} [1 2 3 4 6] [1 2 3 4 6]{16} 5{4} [1 2 3 4 6] [1 2 3 4 6]{12} 5{1} [1 2 3 4 6]{1} 5{6} [1 2 3 4 6] [1 2 3 4 6]{11} 5{9} [1 2 3 4 6] [1 2 3 4 6]{10} 5{10} [1 2 3 4 6] [1 2 3 4 6]{10} 5{10} [1 2 3 4 6] [1 2 3 4 6]{8} 5{12} [1 2 3 4 6] [1 2 3 4 6]{8} 5{12} [1 2 3 4 6]*) | ([1 2 3 4 6]* 5{7} [1 2 3 4 6] [1 2 3 4 6]{13} 5{7} [1 2 3 4 6] [1 2 3 4 6]{12} 5{8} [1 2 3 4 6] [1 2 3 4 6]{13} 5{7} [1 2 3 4 6] [1 2 3 4 6]{14} 5{6} [1 2 3 4 6] [1 2 3 4 6]{14} 5{6} [1 2 3 4 6] [1 2 3 4 6]{15} 5{5} [1 2 3 4 6] [1 2 3 4 6]{14} 5{6} [1 2 3 4 6] [1 2 3 4 6]{15} 5{5} [1 2 3 4 6] [1 2 3 4 6]{16} 5{4} [1 2 3 4 6] [1 2 3 4 6]{18} 5{2} [1 2 3 4 6] [1 2 3 4 6]{18} 5{2} [1 2 3 4 6]*) | ([1 2 3 4 6]* 5{12} [1 2 3 4 6]{8} [1 2 3 4 6] 5{12} [1 2 3 4 6]{8} [1 2 3 4 6] 5{10} [1 2 3 4 6]{10} [1 2 3 4 6] 5{10} [1 2 3 4 6]{10} [1 2 3 4 6] 5{9} [1 2 3 4 6]{11} [1 2 3 4 6] 5{6} [1 2 3 4 6]{1} 5{1} [1 2 3 4 6]{12} [1 2 3 4 6] 5{4} [1 2 3 4 6]{16} [1 2 3 4 6] [1 2 3 4 6]{2} 5{1} [1 2 3 4 6]*) )",
];
